; benchmark generated from python API
(set-info :status unknown)
(declare-fun x_v0q0.i () Real)
(declare-fun x_v0q0.r () Real)
(declare-fun x_v0q1.i () Real)
(declare-fun x_v0q1.r () Real)
(declare-fun x_v0q2.i () Real)
(declare-fun x_v0q2.r () Real)
(declare-fun x_v0q3.i () Real)
(declare-fun x_v0q3.r () Real)
(declare-fun x_v0q4.i () Real)
(declare-fun x_v0q4.r () Real)
(declare-fun x_v0q5.i () Real)
(declare-fun x_v0q5.r () Real)
(declare-fun x_v0q6.i () Real)
(declare-fun x_v0q6.r () Real)
(declare-fun x_v0q7.i () Real)
(declare-fun x_v0q7.r () Real)
(declare-fun x_v1q0.i () Real)
(declare-fun x_v1q0.r () Real)
(declare-fun x_v1q1.i () Real)
(declare-fun x_v1q1.r () Real)
(declare-fun x_v1q2.i () Real)
(declare-fun x_v1q2.r () Real)
(declare-fun x_v1q3.i () Real)
(declare-fun x_v1q3.r () Real)
(declare-fun x_v1q4.i () Real)
(declare-fun x_v1q4.r () Real)
(declare-fun x_v1q5.i () Real)
(declare-fun x_v1q5.r () Real)
(declare-fun x_v1q6.i () Real)
(declare-fun x_v1q6.r () Real)
(declare-fun x_v1q7.i () Real)
(declare-fun x_v1q7.r () Real)
(declare-fun f (Int) Int)
(declare-fun x_v4q0.i () Real)
(declare-fun x_v4q0.r () Real)
(declare-fun x_v4q1.i () Real)
(declare-fun x_v4q1.r () Real)
(declare-fun x_v4q2.i () Real)
(declare-fun x_v4q2.r () Real)
(declare-fun x_v4q3.i () Real)
(declare-fun x_v4q3.r () Real)
(declare-fun x_v4q4.i () Real)
(declare-fun x_v4q4.r () Real)
(declare-fun x_v4q5.i () Real)
(declare-fun x_v4q5.r () Real)
(declare-fun x_v4q6.i () Real)
(declare-fun x_v4q6.r () Real)
(declare-fun x_v4q7.i () Real)
(declare-fun x_v4q7.r () Real)
(declare-fun x_v5q0.i () Real)
(declare-fun x_v5q0.r () Real)
(declare-fun x_v5q1.i () Real)
(declare-fun x_v5q1.r () Real)
(declare-fun x_v5q2.i () Real)
(declare-fun x_v5q2.r () Real)
(declare-fun x_v5q3.i () Real)
(declare-fun x_v5q3.r () Real)
(declare-fun x_v5q4.i () Real)
(declare-fun x_v5q4.r () Real)
(declare-fun x_v5q5.i () Real)
(declare-fun x_v5q5.r () Real)
(declare-fun x_v5q6.i () Real)
(declare-fun x_v5q6.r () Real)
(declare-fun x_v5q7.i () Real)
(declare-fun x_v5q7.r () Real)
(declare-fun Pr_x_v5_7 () Real)
(declare-fun Pr_x_v5_6 () Real)
(declare-fun Pr_x_v5_5 () Real)
(declare-fun Pr_x_v5_4 () Real)
(declare-fun Pr_x_v5_3 () Real)
(declare-fun Pr_x_v5_2 () Real)
(declare-fun Pr_x_v5_1 () Real)
(declare-fun Pr_x_v5_0 () Real)
(declare-fun Pr_x_v5_sum () Real)
(declare-fun meas_x () Int)
(declare-fun x_v0c () Int)
(declare-fun fixed_dj_ret () Int)
(assert
 (and (= x_v0q0.r 1.0) (= 0.0 x_v0q0.i)))
(assert
 (and (= x_v0q1.r 0.0) (= 0.0 x_v0q1.i)))
(assert
 (and (= x_v0q2.r 0.0) (= 0.0 x_v0q2.i)))
(assert
 (and (= x_v0q3.r 0.0) (= 0.0 x_v0q3.i)))
(assert
 (and (= x_v0q4.r 0.0) (= 0.0 x_v0q4.i)))
(assert
 (and (= x_v0q5.r 0.0) (= 0.0 x_v0q5.i)))
(assert
 (and (= x_v0q6.r 0.0) (= 0.0 x_v0q6.i)))
(assert
 (and (= x_v0q7.r 0.0) (= 0.0 x_v0q7.i)))
(assert
 (let ((?x239 (+ (* (root-obj (+ (* 8 (^ x 2)) (- 1)) 2) x_v0q0.i) (* (root-obj (+ (* 8 (^ x 2)) (- 1)) 2) x_v0q1.i) (* (root-obj (+ (* 8 (^ x 2)) (- 1)) 2) x_v0q2.i) (* (root-obj (+ (* 8 (^ x 2)) (- 1)) 2) x_v0q3.i) (* (root-obj (+ (* 8 (^ x 2)) (- 1)) 2) x_v0q4.i) (* (root-obj (+ (* 8 (^ x 2)) (- 1)) 2) x_v0q5.i) (* (root-obj (+ (* 8 (^ x 2)) (- 1)) 2) x_v0q6.i) (* (root-obj (+ (* 8 (^ x 2)) (- 1)) 2) x_v0q7.i))))
 (let ((?x299 (+ (* (root-obj (+ (* 8 (^ x 2)) (- 1)) 2) x_v0q0.r) (* (root-obj (+ (* 8 (^ x 2)) (- 1)) 2) x_v0q1.r) (* (root-obj (+ (* 8 (^ x 2)) (- 1)) 2) x_v0q2.r) (* (root-obj (+ (* 8 (^ x 2)) (- 1)) 2) x_v0q3.r) (* (root-obj (+ (* 8 (^ x 2)) (- 1)) 2) x_v0q4.r) (* (root-obj (+ (* 8 (^ x 2)) (- 1)) 2) x_v0q5.r) (* (root-obj (+ (* 8 (^ x 2)) (- 1)) 2) x_v0q6.r) (* (root-obj (+ (* 8 (^ x 2)) (- 1)) 2) x_v0q7.r))))
 (and (= x_v1q0.r ?x299) (= x_v1q0.i ?x239)))))
(assert
 (let ((?x208 (+ (* (root-obj (+ (* 8 (^ x 2)) (- 1)) 2) x_v0q0.i) (* (root-obj (+ (* 8 (^ x 2)) (- 1)) 1) x_v0q1.i) (* (root-obj (+ (* 8 (^ x 2)) (- 1)) 2) x_v0q2.i) (* (root-obj (+ (* 8 (^ x 2)) (- 1)) 1) x_v0q3.i) (* (root-obj (+ (* 8 (^ x 2)) (- 1)) 2) x_v0q4.i) (* (root-obj (+ (* 8 (^ x 2)) (- 1)) 1) x_v0q5.i) (* (root-obj (+ (* 8 (^ x 2)) (- 1)) 2) x_v0q6.i) (* (root-obj (+ (* 8 (^ x 2)) (- 1)) 1) x_v0q7.i))))
 (let ((?x211 (+ (* (root-obj (+ (* 8 (^ x 2)) (- 1)) 2) x_v0q0.r) (* (root-obj (+ (* 8 (^ x 2)) (- 1)) 1) x_v0q1.r) (* (root-obj (+ (* 8 (^ x 2)) (- 1)) 2) x_v0q2.r) (* (root-obj (+ (* 8 (^ x 2)) (- 1)) 1) x_v0q3.r) (* (root-obj (+ (* 8 (^ x 2)) (- 1)) 2) x_v0q4.r) (* (root-obj (+ (* 8 (^ x 2)) (- 1)) 1) x_v0q5.r) (* (root-obj (+ (* 8 (^ x 2)) (- 1)) 2) x_v0q6.r) (* (root-obj (+ (* 8 (^ x 2)) (- 1)) 1) x_v0q7.r))))
 (and (= x_v1q1.r ?x211) (= x_v1q1.i ?x208)))))
(assert
 (let ((?x605 (+ (* (root-obj (+ (* 8 (^ x 2)) (- 1)) 2) x_v0q0.i) (* (root-obj (+ (* 8 (^ x 2)) (- 1)) 2) x_v0q1.i) (* (root-obj (+ (* 8 (^ x 2)) (- 1)) 1) x_v0q2.i) (* (root-obj (+ (* 8 (^ x 2)) (- 1)) 1) x_v0q3.i) (* (root-obj (+ (* 8 (^ x 2)) (- 1)) 2) x_v0q4.i) (* (root-obj (+ (* 8 (^ x 2)) (- 1)) 2) x_v0q5.i) (* (root-obj (+ (* 8 (^ x 2)) (- 1)) 1) x_v0q6.i) (* (root-obj (+ (* 8 (^ x 2)) (- 1)) 1) x_v0q7.i))))
 (let ((?x172 (+ (* (root-obj (+ (* 8 (^ x 2)) (- 1)) 2) x_v0q0.r) (* (root-obj (+ (* 8 (^ x 2)) (- 1)) 2) x_v0q1.r) (* (root-obj (+ (* 8 (^ x 2)) (- 1)) 1) x_v0q2.r) (* (root-obj (+ (* 8 (^ x 2)) (- 1)) 1) x_v0q3.r) (* (root-obj (+ (* 8 (^ x 2)) (- 1)) 2) x_v0q4.r) (* (root-obj (+ (* 8 (^ x 2)) (- 1)) 2) x_v0q5.r) (* (root-obj (+ (* 8 (^ x 2)) (- 1)) 1) x_v0q6.r) (* (root-obj (+ (* 8 (^ x 2)) (- 1)) 1) x_v0q7.r))))
 (and (= x_v1q2.r ?x172) (= x_v1q2.i ?x605)))))
(assert
 (let ((?x531 (+ (* (root-obj (+ (* 8 (^ x 2)) (- 1)) 2) x_v0q0.i) (* (root-obj (+ (* 8 (^ x 2)) (- 1)) 1) x_v0q1.i) (* (root-obj (+ (* 8 (^ x 2)) (- 1)) 1) x_v0q2.i) (* (root-obj (+ (* 8 (^ x 2)) (- 1)) 2) x_v0q3.i) (* (root-obj (+ (* 8 (^ x 2)) (- 1)) 2) x_v0q4.i) (* (root-obj (+ (* 8 (^ x 2)) (- 1)) 1) x_v0q5.i) (* (root-obj (+ (* 8 (^ x 2)) (- 1)) 1) x_v0q6.i) (* (root-obj (+ (* 8 (^ x 2)) (- 1)) 2) x_v0q7.i))))
 (let ((?x580 (+ (* (root-obj (+ (* 8 (^ x 2)) (- 1)) 2) x_v0q0.r) (* (root-obj (+ (* 8 (^ x 2)) (- 1)) 1) x_v0q1.r) (* (root-obj (+ (* 8 (^ x 2)) (- 1)) 1) x_v0q2.r) (* (root-obj (+ (* 8 (^ x 2)) (- 1)) 2) x_v0q3.r) (* (root-obj (+ (* 8 (^ x 2)) (- 1)) 2) x_v0q4.r) (* (root-obj (+ (* 8 (^ x 2)) (- 1)) 1) x_v0q5.r) (* (root-obj (+ (* 8 (^ x 2)) (- 1)) 1) x_v0q6.r) (* (root-obj (+ (* 8 (^ x 2)) (- 1)) 2) x_v0q7.r))))
 (and (= x_v1q3.r ?x580) (= x_v1q3.i ?x531)))))
(assert
 (let ((?x367 (+ (* (root-obj (+ (* 8 (^ x 2)) (- 1)) 2) x_v0q0.i) (* (root-obj (+ (* 8 (^ x 2)) (- 1)) 2) x_v0q1.i) (* (root-obj (+ (* 8 (^ x 2)) (- 1)) 2) x_v0q2.i) (* (root-obj (+ (* 8 (^ x 2)) (- 1)) 2) x_v0q3.i) (* (root-obj (+ (* 8 (^ x 2)) (- 1)) 1) x_v0q4.i) (* (root-obj (+ (* 8 (^ x 2)) (- 1)) 1) x_v0q5.i) (* (root-obj (+ (* 8 (^ x 2)) (- 1)) 1) x_v0q6.i) (* (root-obj (+ (* 8 (^ x 2)) (- 1)) 1) x_v0q7.i))))
 (let ((?x540 (+ (* (root-obj (+ (* 8 (^ x 2)) (- 1)) 2) x_v0q0.r) (* (root-obj (+ (* 8 (^ x 2)) (- 1)) 2) x_v0q1.r) (* (root-obj (+ (* 8 (^ x 2)) (- 1)) 2) x_v0q2.r) (* (root-obj (+ (* 8 (^ x 2)) (- 1)) 2) x_v0q3.r) (* (root-obj (+ (* 8 (^ x 2)) (- 1)) 1) x_v0q4.r) (* (root-obj (+ (* 8 (^ x 2)) (- 1)) 1) x_v0q5.r) (* (root-obj (+ (* 8 (^ x 2)) (- 1)) 1) x_v0q6.r) (* (root-obj (+ (* 8 (^ x 2)) (- 1)) 1) x_v0q7.r))))
 (and (= x_v1q4.r ?x540) (= x_v1q4.i ?x367)))))
(assert
 (let ((?x482 (+ (* (root-obj (+ (* 8 (^ x 2)) (- 1)) 2) x_v0q0.i) (* (root-obj (+ (* 8 (^ x 2)) (- 1)) 1) x_v0q1.i) (* (root-obj (+ (* 8 (^ x 2)) (- 1)) 2) x_v0q2.i) (* (root-obj (+ (* 8 (^ x 2)) (- 1)) 1) x_v0q3.i) (* (root-obj (+ (* 8 (^ x 2)) (- 1)) 1) x_v0q4.i) (* (root-obj (+ (* 8 (^ x 2)) (- 1)) 2) x_v0q5.i) (* (root-obj (+ (* 8 (^ x 2)) (- 1)) 1) x_v0q6.i) (* (root-obj (+ (* 8 (^ x 2)) (- 1)) 2) x_v0q7.i))))
 (let ((?x347 (+ (* (root-obj (+ (* 8 (^ x 2)) (- 1)) 2) x_v0q0.r) (* (root-obj (+ (* 8 (^ x 2)) (- 1)) 1) x_v0q1.r) (* (root-obj (+ (* 8 (^ x 2)) (- 1)) 2) x_v0q2.r) (* (root-obj (+ (* 8 (^ x 2)) (- 1)) 1) x_v0q3.r) (* (root-obj (+ (* 8 (^ x 2)) (- 1)) 1) x_v0q4.r) (* (root-obj (+ (* 8 (^ x 2)) (- 1)) 2) x_v0q5.r) (* (root-obj (+ (* 8 (^ x 2)) (- 1)) 1) x_v0q6.r) (* (root-obj (+ (* 8 (^ x 2)) (- 1)) 2) x_v0q7.r))))
 (and (= x_v1q5.r ?x347) (= x_v1q5.i ?x482)))))
(assert
 (let ((?x593 (+ (* (root-obj (+ (* 8 (^ x 2)) (- 1)) 2) x_v0q0.i) (* (root-obj (+ (* 8 (^ x 2)) (- 1)) 2) x_v0q1.i) (* (root-obj (+ (* 8 (^ x 2)) (- 1)) 1) x_v0q2.i) (* (root-obj (+ (* 8 (^ x 2)) (- 1)) 1) x_v0q3.i) (* (root-obj (+ (* 8 (^ x 2)) (- 1)) 1) x_v0q4.i) (* (root-obj (+ (* 8 (^ x 2)) (- 1)) 1) x_v0q5.i) (* (root-obj (+ (* 8 (^ x 2)) (- 1)) 2) x_v0q6.i) (* (root-obj (+ (* 8 (^ x 2)) (- 1)) 2) x_v0q7.i))))
 (let ((?x515 (+ (* (root-obj (+ (* 8 (^ x 2)) (- 1)) 2) x_v0q0.r) (* (root-obj (+ (* 8 (^ x 2)) (- 1)) 2) x_v0q1.r) (* (root-obj (+ (* 8 (^ x 2)) (- 1)) 1) x_v0q2.r) (* (root-obj (+ (* 8 (^ x 2)) (- 1)) 1) x_v0q3.r) (* (root-obj (+ (* 8 (^ x 2)) (- 1)) 1) x_v0q4.r) (* (root-obj (+ (* 8 (^ x 2)) (- 1)) 1) x_v0q5.r) (* (root-obj (+ (* 8 (^ x 2)) (- 1)) 2) x_v0q6.r) (* (root-obj (+ (* 8 (^ x 2)) (- 1)) 2) x_v0q7.r))))
 (and (= x_v1q6.r ?x515) (= x_v1q6.i ?x593)))))
(assert
 (let ((?x692 (+ (* (root-obj (+ (* 8 (^ x 2)) (- 1)) 2) x_v0q0.i) (* (root-obj (+ (* 8 (^ x 2)) (- 1)) 1) x_v0q1.i) (* (root-obj (+ (* 8 (^ x 2)) (- 1)) 1) x_v0q2.i) (* (root-obj (+ (* 8 (^ x 2)) (- 1)) 2) x_v0q3.i) (* (root-obj (+ (* 8 (^ x 2)) (- 1)) 1) x_v0q4.i) (* (root-obj (+ (* 8 (^ x 2)) (- 1)) 2) x_v0q5.i) (* (root-obj (+ (* 8 (^ x 2)) (- 1)) 2) x_v0q6.i) (* (root-obj (+ (* 8 (^ x 2)) (- 1)) 1) x_v0q7.i))))
 (let ((?x481 (+ (* (root-obj (+ (* 8 (^ x 2)) (- 1)) 2) x_v0q0.r) (* (root-obj (+ (* 8 (^ x 2)) (- 1)) 1) x_v0q1.r) (* (root-obj (+ (* 8 (^ x 2)) (- 1)) 1) x_v0q2.r) (* (root-obj (+ (* 8 (^ x 2)) (- 1)) 2) x_v0q3.r) (* (root-obj (+ (* 8 (^ x 2)) (- 1)) 1) x_v0q4.r) (* (root-obj (+ (* 8 (^ x 2)) (- 1)) 2) x_v0q5.r) (* (root-obj (+ (* 8 (^ x 2)) (- 1)) 2) x_v0q6.r) (* (root-obj (+ (* 8 (^ x 2)) (- 1)) 1) x_v0q7.r))))
 (and (= x_v1q7.r ?x481) (= x_v1q7.i ?x692)))))
(assert
 (let ((?x448 (+ 1.0 (* (- 2.0) (ite (= (f 0) 1) 1.0 0.0)))))
 (and (= x_v4q0.r (* x_v1q0.r ?x448)) (= x_v4q0.i (* x_v1q0.i ?x448)))))
(assert
 (let ((?x377 (+ 1.0 (* (- 2.0) (ite (= (f 1) 1) 1.0 0.0)))))
 (and (= x_v4q1.r (* x_v1q1.r ?x377)) (= x_v4q1.i (* x_v1q1.i ?x377)))))
(assert
 (let ((?x70 (+ 1.0 (* (- 2.0) (ite (= (f 2) 1) 1.0 0.0)))))
 (and (= x_v4q2.r (* x_v1q2.r ?x70)) (= x_v4q2.i (* x_v1q2.i ?x70)))))
(assert
 (let ((?x68 (+ 1.0 (* (- 2.0) (ite (= (f 3) 1) 1.0 0.0)))))
 (and (= x_v4q3.r (* x_v1q3.r ?x68)) (= x_v4q3.i (* x_v1q3.i ?x68)))))
(assert
 (let ((?x129 (+ 1.0 (* (- 2.0) (ite (= (f 4) 1) 1.0 0.0)))))
 (and (= x_v4q4.r (* x_v1q4.r ?x129)) (= x_v4q4.i (* x_v1q4.i ?x129)))))
(assert
 (let ((?x411 (+ 1.0 (* (- 2.0) (ite (= (f 5) 1) 1.0 0.0)))))
 (and (= x_v4q5.r (* x_v1q5.r ?x411)) (= x_v4q5.i (* x_v1q5.i ?x411)))))
(assert
 (let ((?x61 (+ 1.0 (* (- 2.0) (ite (= (f 6) 1) 1.0 0.0)))))
 (and (= x_v4q6.r (* x_v1q6.r ?x61)) (= x_v4q6.i (* x_v1q6.i ?x61)))))
(assert
 (let ((?x445 (+ 1.0 (* (- 2.0) (ite (= (f 7) 1) 1.0 0.0)))))
 (and (= x_v4q7.r (* x_v1q7.r ?x445)) (= x_v4q7.i (* x_v1q7.i ?x445)))))
(assert
 (let ((?x623 (+ (* (root-obj (+ (* 8 (^ x 2)) (- 1)) 2) x_v4q0.i) (* (root-obj (+ (* 8 (^ x 2)) (- 1)) 2) x_v4q1.i) (* (root-obj (+ (* 8 (^ x 2)) (- 1)) 2) x_v4q2.i) (* (root-obj (+ (* 8 (^ x 2)) (- 1)) 2) x_v4q3.i) (* (root-obj (+ (* 8 (^ x 2)) (- 1)) 2) x_v4q4.i) (* (root-obj (+ (* 8 (^ x 2)) (- 1)) 2) x_v4q5.i) (* (root-obj (+ (* 8 (^ x 2)) (- 1)) 2) x_v4q6.i) (* (root-obj (+ (* 8 (^ x 2)) (- 1)) 2) x_v4q7.i))))
 (let ((?x879 (+ (* (root-obj (+ (* 8 (^ x 2)) (- 1)) 2) x_v4q0.r) (* (root-obj (+ (* 8 (^ x 2)) (- 1)) 2) x_v4q1.r) (* (root-obj (+ (* 8 (^ x 2)) (- 1)) 2) x_v4q2.r) (* (root-obj (+ (* 8 (^ x 2)) (- 1)) 2) x_v4q3.r) (* (root-obj (+ (* 8 (^ x 2)) (- 1)) 2) x_v4q4.r) (* (root-obj (+ (* 8 (^ x 2)) (- 1)) 2) x_v4q5.r) (* (root-obj (+ (* 8 (^ x 2)) (- 1)) 2) x_v4q6.r) (* (root-obj (+ (* 8 (^ x 2)) (- 1)) 2) x_v4q7.r))))
 (and (= x_v5q0.r ?x879) (= x_v5q0.i ?x623)))))
(assert
 (let ((?x874 (+ (* (root-obj (+ (* 8 (^ x 2)) (- 1)) 2) x_v4q0.i) (* (root-obj (+ (* 8 (^ x 2)) (- 1)) 1) x_v4q1.i) (* (root-obj (+ (* 8 (^ x 2)) (- 1)) 2) x_v4q2.i) (* (root-obj (+ (* 8 (^ x 2)) (- 1)) 1) x_v4q3.i) (* (root-obj (+ (* 8 (^ x 2)) (- 1)) 2) x_v4q4.i) (* (root-obj (+ (* 8 (^ x 2)) (- 1)) 1) x_v4q5.i) (* (root-obj (+ (* 8 (^ x 2)) (- 1)) 2) x_v4q6.i) (* (root-obj (+ (* 8 (^ x 2)) (- 1)) 1) x_v4q7.i))))
 (let ((?x866 (+ (* (root-obj (+ (* 8 (^ x 2)) (- 1)) 2) x_v4q0.r) (* (root-obj (+ (* 8 (^ x 2)) (- 1)) 1) x_v4q1.r) (* (root-obj (+ (* 8 (^ x 2)) (- 1)) 2) x_v4q2.r) (* (root-obj (+ (* 8 (^ x 2)) (- 1)) 1) x_v4q3.r) (* (root-obj (+ (* 8 (^ x 2)) (- 1)) 2) x_v4q4.r) (* (root-obj (+ (* 8 (^ x 2)) (- 1)) 1) x_v4q5.r) (* (root-obj (+ (* 8 (^ x 2)) (- 1)) 2) x_v4q6.r) (* (root-obj (+ (* 8 (^ x 2)) (- 1)) 1) x_v4q7.r))))
 (and (= x_v5q1.r ?x866) (= x_v5q1.i ?x874)))))
(assert
 (let ((?x820 (+ (* (root-obj (+ (* 8 (^ x 2)) (- 1)) 2) x_v4q0.i) (* (root-obj (+ (* 8 (^ x 2)) (- 1)) 2) x_v4q1.i) (* (root-obj (+ (* 8 (^ x 2)) (- 1)) 1) x_v4q2.i) (* (root-obj (+ (* 8 (^ x 2)) (- 1)) 1) x_v4q3.i) (* (root-obj (+ (* 8 (^ x 2)) (- 1)) 2) x_v4q4.i) (* (root-obj (+ (* 8 (^ x 2)) (- 1)) 2) x_v4q5.i) (* (root-obj (+ (* 8 (^ x 2)) (- 1)) 1) x_v4q6.i) (* (root-obj (+ (* 8 (^ x 2)) (- 1)) 1) x_v4q7.i))))
 (let ((?x837 (+ (* (root-obj (+ (* 8 (^ x 2)) (- 1)) 2) x_v4q0.r) (* (root-obj (+ (* 8 (^ x 2)) (- 1)) 2) x_v4q1.r) (* (root-obj (+ (* 8 (^ x 2)) (- 1)) 1) x_v4q2.r) (* (root-obj (+ (* 8 (^ x 2)) (- 1)) 1) x_v4q3.r) (* (root-obj (+ (* 8 (^ x 2)) (- 1)) 2) x_v4q4.r) (* (root-obj (+ (* 8 (^ x 2)) (- 1)) 2) x_v4q5.r) (* (root-obj (+ (* 8 (^ x 2)) (- 1)) 1) x_v4q6.r) (* (root-obj (+ (* 8 (^ x 2)) (- 1)) 1) x_v4q7.r))))
 (and (= x_v5q2.r ?x837) (= x_v5q2.i ?x820)))))
(assert
 (let ((?x353 (+ (* (root-obj (+ (* 8 (^ x 2)) (- 1)) 2) x_v4q0.i) (* (root-obj (+ (* 8 (^ x 2)) (- 1)) 1) x_v4q1.i) (* (root-obj (+ (* 8 (^ x 2)) (- 1)) 1) x_v4q2.i) (* (root-obj (+ (* 8 (^ x 2)) (- 1)) 2) x_v4q3.i) (* (root-obj (+ (* 8 (^ x 2)) (- 1)) 2) x_v4q4.i) (* (root-obj (+ (* 8 (^ x 2)) (- 1)) 1) x_v4q5.i) (* (root-obj (+ (* 8 (^ x 2)) (- 1)) 1) x_v4q6.i) (* (root-obj (+ (* 8 (^ x 2)) (- 1)) 2) x_v4q7.i))))
 (let ((?x813 (+ (* (root-obj (+ (* 8 (^ x 2)) (- 1)) 2) x_v4q0.r) (* (root-obj (+ (* 8 (^ x 2)) (- 1)) 1) x_v4q1.r) (* (root-obj (+ (* 8 (^ x 2)) (- 1)) 1) x_v4q2.r) (* (root-obj (+ (* 8 (^ x 2)) (- 1)) 2) x_v4q3.r) (* (root-obj (+ (* 8 (^ x 2)) (- 1)) 2) x_v4q4.r) (* (root-obj (+ (* 8 (^ x 2)) (- 1)) 1) x_v4q5.r) (* (root-obj (+ (* 8 (^ x 2)) (- 1)) 1) x_v4q6.r) (* (root-obj (+ (* 8 (^ x 2)) (- 1)) 2) x_v4q7.r))))
 (and (= x_v5q3.r ?x813) (= x_v5q3.i ?x353)))))
(assert
 (let ((?x805 (+ (* (root-obj (+ (* 8 (^ x 2)) (- 1)) 2) x_v4q0.i) (* (root-obj (+ (* 8 (^ x 2)) (- 1)) 2) x_v4q1.i) (* (root-obj (+ (* 8 (^ x 2)) (- 1)) 2) x_v4q2.i) (* (root-obj (+ (* 8 (^ x 2)) (- 1)) 2) x_v4q3.i) (* (root-obj (+ (* 8 (^ x 2)) (- 1)) 1) x_v4q4.i) (* (root-obj (+ (* 8 (^ x 2)) (- 1)) 1) x_v4q5.i) (* (root-obj (+ (* 8 (^ x 2)) (- 1)) 1) x_v4q6.i) (* (root-obj (+ (* 8 (^ x 2)) (- 1)) 1) x_v4q7.i))))
 (let ((?x816 (+ (* (root-obj (+ (* 8 (^ x 2)) (- 1)) 2) x_v4q0.r) (* (root-obj (+ (* 8 (^ x 2)) (- 1)) 2) x_v4q1.r) (* (root-obj (+ (* 8 (^ x 2)) (- 1)) 2) x_v4q2.r) (* (root-obj (+ (* 8 (^ x 2)) (- 1)) 2) x_v4q3.r) (* (root-obj (+ (* 8 (^ x 2)) (- 1)) 1) x_v4q4.r) (* (root-obj (+ (* 8 (^ x 2)) (- 1)) 1) x_v4q5.r) (* (root-obj (+ (* 8 (^ x 2)) (- 1)) 1) x_v4q6.r) (* (root-obj (+ (* 8 (^ x 2)) (- 1)) 1) x_v4q7.r))))
 (and (= x_v5q4.r ?x816) (= x_v5q4.i ?x805)))))
(assert
 (let ((?x596 (+ (* (root-obj (+ (* 8 (^ x 2)) (- 1)) 2) x_v4q0.i) (* (root-obj (+ (* 8 (^ x 2)) (- 1)) 1) x_v4q1.i) (* (root-obj (+ (* 8 (^ x 2)) (- 1)) 2) x_v4q2.i) (* (root-obj (+ (* 8 (^ x 2)) (- 1)) 1) x_v4q3.i) (* (root-obj (+ (* 8 (^ x 2)) (- 1)) 1) x_v4q4.i) (* (root-obj (+ (* 8 (^ x 2)) (- 1)) 2) x_v4q5.i) (* (root-obj (+ (* 8 (^ x 2)) (- 1)) 1) x_v4q6.i) (* (root-obj (+ (* 8 (^ x 2)) (- 1)) 2) x_v4q7.i))))
 (let ((?x802 (+ (* (root-obj (+ (* 8 (^ x 2)) (- 1)) 2) x_v4q0.r) (* (root-obj (+ (* 8 (^ x 2)) (- 1)) 1) x_v4q1.r) (* (root-obj (+ (* 8 (^ x 2)) (- 1)) 2) x_v4q2.r) (* (root-obj (+ (* 8 (^ x 2)) (- 1)) 1) x_v4q3.r) (* (root-obj (+ (* 8 (^ x 2)) (- 1)) 1) x_v4q4.r) (* (root-obj (+ (* 8 (^ x 2)) (- 1)) 2) x_v4q5.r) (* (root-obj (+ (* 8 (^ x 2)) (- 1)) 1) x_v4q6.r) (* (root-obj (+ (* 8 (^ x 2)) (- 1)) 2) x_v4q7.r))))
 (and (= x_v5q5.r ?x802) (= x_v5q5.i ?x596)))))
(assert
 (let ((?x743 (+ (* (root-obj (+ (* 8 (^ x 2)) (- 1)) 2) x_v4q0.i) (* (root-obj (+ (* 8 (^ x 2)) (- 1)) 2) x_v4q1.i) (* (root-obj (+ (* 8 (^ x 2)) (- 1)) 1) x_v4q2.i) (* (root-obj (+ (* 8 (^ x 2)) (- 1)) 1) x_v4q3.i) (* (root-obj (+ (* 8 (^ x 2)) (- 1)) 1) x_v4q4.i) (* (root-obj (+ (* 8 (^ x 2)) (- 1)) 1) x_v4q5.i) (* (root-obj (+ (* 8 (^ x 2)) (- 1)) 2) x_v4q6.i) (* (root-obj (+ (* 8 (^ x 2)) (- 1)) 2) x_v4q7.i))))
 (let ((?x803 (+ (* (root-obj (+ (* 8 (^ x 2)) (- 1)) 2) x_v4q0.r) (* (root-obj (+ (* 8 (^ x 2)) (- 1)) 2) x_v4q1.r) (* (root-obj (+ (* 8 (^ x 2)) (- 1)) 1) x_v4q2.r) (* (root-obj (+ (* 8 (^ x 2)) (- 1)) 1) x_v4q3.r) (* (root-obj (+ (* 8 (^ x 2)) (- 1)) 1) x_v4q4.r) (* (root-obj (+ (* 8 (^ x 2)) (- 1)) 1) x_v4q5.r) (* (root-obj (+ (* 8 (^ x 2)) (- 1)) 2) x_v4q6.r) (* (root-obj (+ (* 8 (^ x 2)) (- 1)) 2) x_v4q7.r))))
 (and (= x_v5q6.r ?x803) (= x_v5q6.i ?x743)))))
(assert
 (let ((?x905 (+ (* (root-obj (+ (* 8 (^ x 2)) (- 1)) 2) x_v4q0.i) (* (root-obj (+ (* 8 (^ x 2)) (- 1)) 1) x_v4q1.i) (* (root-obj (+ (* 8 (^ x 2)) (- 1)) 1) x_v4q2.i) (* (root-obj (+ (* 8 (^ x 2)) (- 1)) 2) x_v4q3.i) (* (root-obj (+ (* 8 (^ x 2)) (- 1)) 1) x_v4q4.i) (* (root-obj (+ (* 8 (^ x 2)) (- 1)) 2) x_v4q5.i) (* (root-obj (+ (* 8 (^ x 2)) (- 1)) 2) x_v4q6.i) (* (root-obj (+ (* 8 (^ x 2)) (- 1)) 1) x_v4q7.i))))
 (let ((?x893 (+ (* (root-obj (+ (* 8 (^ x 2)) (- 1)) 2) x_v4q0.r) (* (root-obj (+ (* 8 (^ x 2)) (- 1)) 1) x_v4q1.r) (* (root-obj (+ (* 8 (^ x 2)) (- 1)) 1) x_v4q2.r) (* (root-obj (+ (* 8 (^ x 2)) (- 1)) 2) x_v4q3.r) (* (root-obj (+ (* 8 (^ x 2)) (- 1)) 1) x_v4q4.r) (* (root-obj (+ (* 8 (^ x 2)) (- 1)) 2) x_v4q5.r) (* (root-obj (+ (* 8 (^ x 2)) (- 1)) 2) x_v4q6.r) (* (root-obj (+ (* 8 (^ x 2)) (- 1)) 1) x_v4q7.r))))
 (and (= x_v5q7.r ?x893) (= x_v5q7.i ?x905)))))
(assert
 (and (and (<= Pr_x_v5_0 1.0) (>= Pr_x_v5_0 0.0)) (and (<= Pr_x_v5_1 1.0) (>= Pr_x_v5_1 0.0)) (and (<= Pr_x_v5_2 1.0) (>= Pr_x_v5_2 0.0)) (and (<= Pr_x_v5_3 1.0) (>= Pr_x_v5_3 0.0)) (and (<= Pr_x_v5_4 1.0) (>= Pr_x_v5_4 0.0)) (and (<= Pr_x_v5_5 1.0) (>= Pr_x_v5_5 0.0)) (and (<= Pr_x_v5_6 1.0) (>= Pr_x_v5_6 0.0)) (and (<= Pr_x_v5_7 1.0) (>= Pr_x_v5_7 0.0))))
(assert
 (let ((?x138 (+ Pr_x_v5_0 Pr_x_v5_1 Pr_x_v5_2 Pr_x_v5_3 Pr_x_v5_4 Pr_x_v5_5 Pr_x_v5_6 Pr_x_v5_7)))
 (= Pr_x_v5_sum ?x138)))
(assert
 (= Pr_x_v5_sum 1.0))
(assert
 (= Pr_x_v5_0 (+ (+ (^ x_v5q0.r 2.0) (^ x_v5q0.i 2.0)))))
(assert
 (= Pr_x_v5_1 (+ (+ (^ x_v5q1.r 2.0) (^ x_v5q1.i 2.0)))))
(assert
 (= Pr_x_v5_2 (+ (+ (^ x_v5q2.r 2.0) (^ x_v5q2.i 2.0)))))
(assert
 (= Pr_x_v5_3 (+ (+ (^ x_v5q3.r 2.0) (^ x_v5q3.i 2.0)))))
(assert
 (= Pr_x_v5_4 (+ (+ (^ x_v5q4.r 2.0) (^ x_v5q4.i 2.0)))))
(assert
 (= Pr_x_v5_5 (+ (+ (^ x_v5q5.r 2.0) (^ x_v5q5.i 2.0)))))
(assert
 (= Pr_x_v5_6 (+ (+ (^ x_v5q6.r 2.0) (^ x_v5q6.i 2.0)))))
(assert
 (= Pr_x_v5_7 (+ (+ (^ x_v5q7.r 2.0) (^ x_v5q7.i 2.0)))))
(assert
 (and (=> (>= Pr_x_v5_0 (/ 1.0 2.0)) (= meas_x 0)) (=> (= meas_x 0) (>= Pr_x_v5_0 (/ 1.0 2.0)))))
(assert
 (and (=> (>= Pr_x_v5_1 (/ 1.0 2.0)) (= meas_x 1)) (=> (= meas_x 1) (>= Pr_x_v5_1 (/ 1.0 2.0)))))
(assert
 (and (=> (>= Pr_x_v5_2 (/ 1.0 2.0)) (= meas_x 2)) (=> (= meas_x 2) (>= Pr_x_v5_2 (/ 1.0 2.0)))))
(assert
 (and (=> (>= Pr_x_v5_3 (/ 1.0 2.0)) (= meas_x 3)) (=> (= meas_x 3) (>= Pr_x_v5_3 (/ 1.0 2.0)))))
(assert
 (and (=> (>= Pr_x_v5_4 (/ 1.0 2.0)) (= meas_x 4)) (=> (= meas_x 4) (>= Pr_x_v5_4 (/ 1.0 2.0)))))
(assert
 (and (=> (>= Pr_x_v5_5 (/ 1.0 2.0)) (= meas_x 5)) (=> (= meas_x 5) (>= Pr_x_v5_5 (/ 1.0 2.0)))))
(assert
 (and (=> (>= Pr_x_v5_6 (/ 1.0 2.0)) (= meas_x 6)) (=> (= meas_x 6) (>= Pr_x_v5_6 (/ 1.0 2.0)))))
(assert
 (and (=> (>= Pr_x_v5_7 (/ 1.0 2.0)) (= meas_x 7)) (=> (= meas_x 7) (>= Pr_x_v5_7 (/ 1.0 2.0)))))
(assert
 (=> (= Pr_x_v5_0 0.0) (and (distinct meas_x 0) true)))
(assert
 (=> (= Pr_x_v5_1 0.0) (and (distinct meas_x 1) true)))
(assert
 (=> (= Pr_x_v5_2 0.0) (and (distinct meas_x 2) true)))
(assert
 (=> (= Pr_x_v5_3 0.0) (and (distinct meas_x 3) true)))
(assert
 (=> (= Pr_x_v5_4 0.0) (and (distinct meas_x 4) true)))
(assert
 (=> (= Pr_x_v5_5 0.0) (and (distinct meas_x 5) true)))
(assert
 (=> (= Pr_x_v5_6 0.0) (and (distinct meas_x 6) true)))
(assert
 (=> (= Pr_x_v5_7 0.0) (and (distinct meas_x 7) true)))
(assert
 (= x_v0c meas_x))
(assert
 (= fixed_dj_ret x_v0c))
(check-sat)
